2831003
80,15,43,62,24,33,34,100,2,82,106,93,58,51,1,83,50,45,29,66,42,55,65,40,36,8,25,71,74,26,85,56,37,76,22,14,78,73,79,21,52,53,57,101,70,6,49,17,59,75,18,41,72,95,32,77,20,67,47,99,16,98,12,86,96,46,35,64,87,61,92,107,54,39,27,7,11,105,48,10,90,88,9,89,81,44,0,4,97,28,19,31,5,94,60,84,102,91,3,104,30,13,68,69,38,63,103,23,108
